Total number of lines in the file: 110
Total number of nodes including depot: 101
Customer 1: (40, 50), Demand: 0, Time Window: [0, 1236], Service Time: 0
Customer 2: (45, 68), Demand: 10, Time Window: [885, 994], Service Time: 90
Customer 3: (45, 70), Demand: 30, Time Window: [802, 893], Service Time: 90
Customer 4: (42, 66), Demand: 10, Time Window: [25, 186], Service Time: 90
Customer 5: (42, 68), Demand: 10, Time Window: [699, 810], Service Time: 90
calling MST kernel
Post Processing Route
Post 2 opt Processing Route
2-opt between 12 and 13 improved cost from 2107.26 to 2105.74
Elapsed time: 0.617852 seconds
Final Route: 
Route #1: 20 21 
Route #2: 22 
Route #3: 25 27 29 34 
Route #4: 33 32 31 35 36 
Route #5: 39 
Route #6: 38 
Route #7: 37 
Route #8: 24 23 
Route #9: 26 
Route #10: 28 
Route #11: 30 
Route #12: 10 11 
Route #13: 8 9 6 4 1 
Route #14: 2 
Route #15: 98 96 95 94 93 
Route #16: 92 97 100 99 91 
Route #17: 89 
Route #18: 87 86 88 
Route #19: 85 
Route #20: 84 
Route #21: 83 82 
Route #22: 81 78 76 71 70 73 77 79 80 
Route #23: 90 3 7 
Route #24: 5 75 
Route #25: 13 17 18 19 15 16 14 12 
Route #26: 67 65 63 62 66 69 
Route #27: 74 61 64 68 
Route #28: 55 54 53 56 58 60 
Route #29: 57 59 
Route #30: 40 
Route #31: 41 
Route #32: 42 43 44 45 48 50 
Route #33: 51 
Route #34: 46 47 49 
Route #35: 52 
Route #36: 72 
Route #37: Total Distance: 2107.26
Final route is valid
